certificates/rado_a10_c266_N31.cnf
c Rad2 upper bound instance: x1 + 10*x2 - x3 = 266, interval [1,31]
p cnf 31 192
1 5 27 0
-1 -5 -27 0
1 15 28 0
-1 -15 -28 0
1 25 29 0
-1 -25 -29 0
2 6 27 0
-2 -6 -27 0
2 16 28 0
-2 -16 -28 0
2 26 29 0
-2 -26 -29 0
3 7 27 0
-3 -7 -27 0
3 17 28 0
-3 -17 -28 0
3 27 29 0
-3 -27 -29 0
4 8 27 0
-4 -8 -27 0
4 18 28 0
-4 -18 -28 0
4 28 29 0
-4 -28 -29 0
5 9 27 0
-5 -9 -27 0
5 19 28 0
-5 -19 -28 0
5 29 0
-5 -29 0
6 10 27 0
-6 -10 -27 0
6 20 28 0
-6 -20 -28 0
6 29 30 0
-6 -29 -30 0
1 7 26 0
-1 -7 -26 0
7 11 27 0
-7 -11 -27 0
7 21 28 0
-7 -21 -28 0
7 29 31 0
-7 -29 -31 0
2 8 26 0
-2 -8 -26 0
8 12 27 0
-8 -12 -27 0
8 22 28 0
-8 -22 -28 0
3 9 26 0
-3 -9 -26 0
9 13 27 0
-9 -13 -27 0
9 23 28 0
-9 -23 -28 0
4 10 26 0
-4 -10 -26 0
10 14 27 0
-10 -14 -27 0
10 24 28 0
-10 -24 -28 0
5 11 26 0
-5 -11 -26 0
11 15 27 0
-11 -15 -27 0
11 25 28 0
-11 -25 -28 0
6 12 26 0
-6 -12 -26 0
12 16 27 0
-12 -16 -27 0
12 26 28 0
-12 -26 -28 0
7 13 26 0
-7 -13 -26 0
13 17 27 0
-13 -17 -27 0
13 27 28 0
-13 -27 -28 0
8 14 26 0
-8 -14 -26 0
14 18 27 0
-14 -18 -27 0
14 28 0
-14 -28 0
9 15 26 0
-9 -15 -26 0
15 19 27 0
-15 -19 -27 0
15 28 29 0
-15 -28 -29 0
10 16 26 0
-10 -16 -26 0
16 20 27 0
-16 -20 -27 0
16 28 30 0
-16 -28 -30 0
1 17 25 0
-1 -17 -25 0
11 17 26 0
-11 -17 -26 0
17 21 27 0
-17 -21 -27 0
17 28 31 0
-17 -28 -31 0
2 18 25 0
-2 -18 -25 0
12 18 26 0
-12 -18 -26 0
18 22 27 0
-18 -22 -27 0
3 19 25 0
-3 -19 -25 0
13 19 26 0
-13 -19 -26 0
19 23 27 0
-19 -23 -27 0
4 20 25 0
-4 -20 -25 0
14 20 26 0
-14 -20 -26 0
20 24 27 0
-20 -24 -27 0
5 21 25 0
-5 -21 -25 0
15 21 26 0
-15 -21 -26 0
21 25 27 0
-21 -25 -27 0
6 22 25 0
-6 -22 -25 0
16 22 26 0
-16 -22 -26 0
22 26 27 0
-22 -26 -27 0
7 23 25 0
-7 -23 -25 0
17 23 26 0
-17 -23 -26 0
23 27 0
-23 -27 0
8 24 25 0
-8 -24 -25 0
18 24 26 0
-18 -24 -26 0
24 27 28 0
-24 -27 -28 0
9 25 0
-9 -25 0
19 25 26 0
-19 -25 -26 0
25 27 29 0
-25 -27 -29 0
10 25 26 0
-10 -25 -26 0
20 26 0
-20 -26 0
26 27 30 0
-26 -27 -30 0
1 24 27 0
-1 -24 -27 0
11 25 27 0
-11 -25 -27 0
21 26 27 0
-21 -26 -27 0
27 31 0
-27 -31 0
2 24 28 0
-2 -24 -28 0
12 25 28 0
-12 -25 -28 0
22 26 28 0
-22 -26 -28 0
3 24 29 0
-3 -24 -29 0
13 25 29 0
-13 -25 -29 0
23 26 29 0
-23 -26 -29 0
4 24 30 0
-4 -24 -30 0
14 25 30 0
-14 -25 -30 0
24 26 30 0
-24 -26 -30 0
5 24 31 0
-5 -24 -31 0
15 25 31 0
-15 -25 -31 0
25 26 31 0
-25 -26 -31 0
