certificates/rado_a10_c266_N31.drat
-29 -31 0
-31 0
27 0
-23 0
29 0
-5 0
-3 0
-25 0
24 0
9 0
15 0
26 0
19 0
21 0
7 0
-20 0
-18 0
-28 0
-1 0
-13 0
0
